1 15
2 3
3 11
4 12
5 15
6 11
7 11
8 18
9 4
10 3
11 14
12 19
13 14
14 19
15 18
16 7
17 21
18 13
19 10
20 10
21 14
22 5
23 3
24 2
25 7
26 18
27 5
28 8
29 3
30 3
31 3
32 21
33 20
34 21
35 2
36 4
37 21
38 6
39 21
40 1
41 1
42 6
43 1
44 4
45 14
46 5
47 16
48 15
49 10
50 16
51 18
52 7
53 7
54 8
55 9
56 13
57 8
58 10
59 9
60 9
61 5
62 18
63 16
64 14
65 12
66 11
67 2
68 19
69 12
70 11
71 8
72 8
73 5
74 20
75 20
76 5
77 5
78 3
79 17
80 14
81 17
82 13
83 2
84 2
85 6
86 3
87 6
88 17
89 12
90 4
91 12
92 6
93 13
94 15
95 9
96 9
97 8
98 3
99 7
100 21
101 9
102 18
103 13
104 17
105 17
106 4
107 4
108 6
109 6
110 6
111 6
112 6
113 6
114 7
115 7
116 18
117 19
118 17
119 17
120 16
121 14
122 1
123 8
124 13
125 18
126 5
127 14
128 4
129 5
130 21
131 21
132 20
133 21
134 18
135 18
136 12
137 4
138 8
139 8
140 12
141 9
142 16
143 11
144 9
145 2
146 10
147 13
148 2
149 15
150 14
151 15
152 18
153 1
154 1
155 10
156 10
157 16
158 5
159 18
160 15
161 15
162 17
163 11
164 4
165 9
166 19
167 19
168 1
169 12
170 2
171 6
172 16
173 13
174 14
175 1
176 16
177 10
178 4
179 8
180 11
181 19
